
Maximize
  obj: c_0 + c_1 + c_2 + c_3 + c_4 + c_5 + c_6 + c_7 + c_8 + c_9

Subject To
  like_0_dlust: c_0 - i_0 <= 0
  like_0_byyii: c_0 - i_1 <= 0
  like_0_akuof: c_0 - i_2 <= 0
  dislike_0_xdozp: c_0 + i_3 <= 1
  like_1_dlust: c_1 - i_0 <= 0
  like_1_luncl: c_1 - i_4 <= 0
  like_1_qzfyo: c_1 - i_5 <= 0
  dislike_1_xdozp: c_1 + i_3 <= 1
  like_2_luncl: c_2 - i_4 <= 0
  like_2_vxglq: c_2 - i_6 <= 0
  like_2_akuof: c_2 - i_2 <= 0
  dislike_2_qzfyo: c_2 + i_5 <= 1
  like_3_dlust: c_3 - i_0 <= 0
  like_3_luncl: c_3 - i_4 <= 0
  like_3_vxglq: c_3 - i_6 <= 0

  like_4_xveqd: c_4 - i_7 <= 0
  like_4_dlust: c_4 - i_0 <= 0
  like_4_tfeej: c_4 - i_8 <= 0

  like_5_luncl: c_5 - i_4 <= 0
  like_5_qzfyo: c_5 - i_5 <= 0
  like_5_vxglq: c_5 - i_6 <= 0
  dislike_5_byyii: c_5 + i_1 <= 1
  like_6_xveqd: c_6 - i_7 <= 0
  like_6_luncl: c_6 - i_4 <= 0
  like_6_xdozp: c_6 - i_3 <= 0
  dislike_6_sunhp: c_6 + i_9 <= 1
  like_7_xdozp: c_7 - i_3 <= 0
  like_7_byyii: c_7 - i_1 <= 0
  like_7_tfeej: c_7 - i_8 <= 0
  dislike_7_qzfyo: c_7 + i_5 <= 1
  like_8_dlust: c_8 - i_0 <= 0
  like_8_tfeej: c_8 - i_8 <= 0
  like_8_akuof: c_8 - i_2 <= 0
  dislike_8_xveqd: c_8 + i_7 <= 1
  like_9_dlust: c_9 - i_0 <= 0
  like_9_byyii: c_9 - i_1 <= 0
  like_9_vxglq: c_9 - i_6 <= 0
  dislike_9_akuof: c_9 + i_2 <= 1

Binaries
  c_0 c_1 c_2 c_3 c_4 c_5 c_6 c_7 c_8 c_9
  i_0 i_1 i_2 i_3 i_4 i_5 i_6 i_7 i_8 i_9

End
